 Run started: Mon, 28 Mar 2022 19:54:30 +0100

 Atomic calculation performed for Be: 1s2 2s2

 Converged in 44 iterations to an ae energy of -399.040 eV

   | Pseudopotential Report - Date of generation 28-03-2022   |
   | Element: Be Ionic charge:  4.00 Level of theory: BLYP    |
   | Atomic Solver: Koelling-Harmon                           |
   |               Reference Electronic Structure             |
   |         Orbital         Occupation         Energy        |
   |            1s              2.000           -3.917        |
   |            2s              2.000           -0.201        |
   |                 Pseudopotential Definition               |
   |        Beta     l      e      Rc     scheme   norm       |
   |          1      0   -3.917   0.996     qc      0         |
   |          2      0   -0.201   0.996     qc      0         |
   |          3      0    0.250   0.996     qc      0         |
   |          4      1    0.000   0.996     qc      0         |
   |          5      1    0.250   0.996     qc      0         |
   |         loc     2    0.000   0.996     pn      0         |
   | Augmentation charge Rinner = 0.702                       |
   | No partial core correction                               |
   | "2|1.0|14|16|18|10U:20:21(qc=7)"                         |
   |      Author: Chris J. Pickard, Cambridge University      |

 Atomic calculation performed for C: 1s2 2s2 2p2

 Converged in 56 iterations to an ae energy of -1029.069 eV

   | Pseudopotential Report - Date of generation 28-03-2022   |
   | Element: C Ionic charge:  4.00 Level of theory: BLYP     |
   | Atomic Solver: Koelling-Harmon                           |
   |               Reference Electronic Structure             |
   |         Orbital         Occupation         Energy        |
   |            2s              2.000           -0.500        |
   |            2p              2.000           -0.192        |
   |                 Pseudopotential Definition               |
   |        Beta     l      e      Rc     scheme   norm       |
   |          1      0   -0.500   1.395     qc      0         |
   |          2      0    0.250   1.395     qc      0         |
   |          3      1   -0.192   1.395     qc      0         |
   |          4      1    0.250   1.395     qc      0         |
   |         loc     2    0.000   1.395     pn      0         |
   | Augmentation charge Rinner = 0.983                       |
   | Partial core correction Rc = 0.983                       |
   | "2|1.4|10|12|13|20:21(qc=7)"                             |
   |      Author: Chris J. Pickard, Cambridge University      |

 Pseudo atomic calculation performed for Be 1s2 2s2

 Converged in 25 iterations to a total energy of -389.3029 eV

 Pseudo atomic calculation performed for C 2s2 2p2

 Converged in 36 iterations to a total energy of -148.5530 eV
 Calculation parallelised over 250 processes.
 Data is distributed by k-point(250-way)

 ************************************ Title ************************************

 ***************************** General Parameters ******************************

 output verbosity                               : normal  (1)
 write checkpoint data to                       : BeC_tube+wire.check
 type of calculation                            : geometry optimization
 stress calculation                             : off
 density difference calculation                 : off
 electron localisation func (ELF) calculation   : off
 Hirshfeld analysis                             : off
 polarisation (Berry phase) analysis            : off
 molecular orbital projected DOS                : off
 deltaSCF calculation                           : off
 unlimited duration calculation
 timing information                             : on
 write extra output files                       : on
 write final potential to formatted file        : off
 write final density to formatted file          : off
 write BibTeX reference list                    : on
 write OTFG pseudopotential files               : on
 write electrostatic potential file             : on
 write bands file                               : on
 checkpoint writing                             : both castep_bin and check files

 output         length unit                     : A
 output           mass unit                     : amu
 output           time unit                     : ps
 output         charge unit                     : e
 output           spin unit                     : hbar/2
 output         energy unit                     : eV
 output          force unit                     : eV/A
 output       velocity unit                     : A/ps
 output       pressure unit                     : GPa
 output     inv_length unit                     : 1/A
 output      frequency unit                     : cm-1
 output force constant unit                     : eV/A**2
 output         volume unit                     : A**3
 output   IR intensity unit                     : (D/A)**2/amu
 output         dipole unit                     : D
 output         efield unit                     : eV/A/e
 output        entropy unit                     : J/mol/K
 output    efield chi2 unit                     : pm/V

 wavefunctions paging                           : none
 random number generator seed                   : randomised (195430363)
 data distribution                              : k-point only
 optimization strategy                          : maximize speed(+++)

 *********************** Exchange-Correlation Parameters ***********************

 using functional                               : BLYP
 relativistic treatment                         : Koelling-Harmon
 DFT+D: Semi-empirical dispersion correction    : off

 ************************* Pseudopotential Parameters **************************

 pseudopotential representation                 : reciprocal space
 <beta|phi> representation                      : reciprocal space
 spin-orbit coupling                            : off

 **************************** Basis Set Parameters *****************************

 plane wave basis set cut-off                   :  1000.0000   eV
 size of standard grid                          :     2.0000
 size of   fine   gmax                          :    32.4018   1/A
 finite basis set correction                    : automatic
 number of sample energies                      :          3
           sample  spacing                      :     5.0000   eV

 **************************** Electronic Parameters ****************************

 number of  electrons                           :  84.00
 net charge of system                           :  0.000
 treating system as non-spin-polarized
 number of bands                                :         77

 ********************* Electronic Minimization Parameters **********************

 Method: Treating system as metallic with density mixing treatment of electrons,
         and number of  SD  steps               :          1
         and number of  CG  steps               :          4

 total energy / atom convergence tol.           : 0.1000E-10   eV
 eigen-energy convergence tolerance             : 0.2727E-11   eV
 max force / atom convergence tol.              : ignored
 convergence tolerance window                   :          3   cycles
 max. number of SCF cycles                      :        200
 number of fixed-spin iterations                :         10
 smearing scheme                                : Gaussian
 smearing width                                 : 0.5000E-01   eV
 Fermi energy convergence tolerance             : 0.2721E-13   eV
 periodic dipole correction                     : NONE

 ************************** Density Mixing Parameters **************************

 density-mixing scheme                          : Pulay
 max. length of mixing history                  :         20
 charge density mixing amplitude                : 0.8000
 cut-off energy for mixing                      :  1000.       eV

 *********************** Population Analysis Parameters ************************

 Population analysis with cutoff                :  3.000       A
 Population analysis output                     : summary and pdos components

 ********************** Geometry Optimization Parameters ***********************

 optimization method                            : LBFGS
 max. no. of LBFGS updates                      : unbounded
 preconditioned LBFGS is activated
 preconditioner type                            : EXP
     stabilization constant                     :     0.1000
     parameter A                                :     3.0000
     nearest neighbor distance                  : automatic
     cut-off distance                           : automatic
     parameter mu                               : automatic
 variable cell method                           : fixed basis quality
 max. number of steps                           :         30
 estimated bulk modulus                         :  500.0       GPa
 estimated <frequency>                          :  1668.       cm-1
 geom line minimiser                            : on
 with line minimiser tolerance                  :     0.4000
 total energy convergence tolerance             : 0.2000E-04   eV/atom
        max ionic |force| tolerance             : 0.1000E-02   eV/A
 max ionic |displacement| tolerance             : 0.1000E-02   A
   max |stress component| tolerance             : 0.1000       GPa
 convergence tolerance window                   :          2   steps
 backup results every                           :          5   steps
 write geom trajectory file                     : on

                                      Unit Cell
        Real Lattice(A)                      Reciprocal Lattice(1/A)
    19.1230500    -0.7864580    -0.0047370        0.327993637  -0.013922938   0.000679655
     0.7854600    18.5034760    -0.0046120        0.013940789   0.338976058  -0.000004143
    -0.0050600     0.0002380     2.4467730        0.000661279   0.000611992   2.567949094

                       Lattice parameters(A)       Cell Angles
                    a =     19.139216          alpha =   90.013725
                    b =     18.520140          beta  =   90.132799
                    c =      2.446778          gamma =   89.924318

                       Current cell volume =           867.284252       A**3
                                   density =             0.287364   AMU/A**3
                                           =             0.477179     g/cm^3

                                     Cell Contents
                         Total number of ions in cell =   21
                      Total number of species in cell =    2
                        Max number of any one species =   20

            x  Element    Atom        Fractional coordinates of atoms  x
            x            Number           u          v          w      x
            x  Be           1         0.457604   0.540465   0.378835   x
            x  C            1         0.637640   0.516852   0.501116   x
            x  C            2         0.590200   0.412531   0.000824   x
[...]
SCF loop      Energy           Fermi           Energy gain       Timer   <-- SCF
                               energy          per atom          (sec)   <-- SCF
------------------------------------------------------------------------ <-- SCF
Initial  -3.53113621E+003  0.00000000E+000                     13420.83  <-- SCF
      1  -3.53113837E+003 -1.75467048E+000   1.02711684E-004   13464.85  <-- SCF
      2  -3.53113837E+003 -1.75467048E+000   1.24833174E-009   13536.07  <-- SCF
      3  -3.53113837E+003 -1.75467191E+000  -1.86677082E-008   13592.21  <-- SCF
      4  -3.53113837E+003 -1.75467119E+000   2.99045721E-010   13656.51  <-- SCF
      5  -3.53113837E+003 -1.75467228E+000  -4.31929560E-009   13706.08  <-- SCF
      6  -3.53113837E+003 -1.75467147E+000   5.25502881E-010   13754.64  <-- SCF
      7  -3.53113837E+003 -1.75467199E+000  -2.53260790E-009   13805.05  <-- SCF
      8  -3.53113837E+003 -1.75467182E+000   2.61002097E-010   13854.42  <-- SCF
      9  -3.53113837E+003 -1.75467194E+000  -2.03273751E-009   13903.18  <-- SCF
     10  -3.53113837E+003 -1.75467203E+000  -6.92077241E-010   13951.50  <-- SCF
     11  -3.53113837E+003 -1.75467207E+000  -3.45154741E-010   14002.25  <-- SCF
     12  -3.53113837E+003 -1.75467224E+000  -5.49846382E-011   14050.89  <-- SCF
     13  -3.53113837E+003 -1.75467228E+000   3.30386597E-009   14099.84  <-- SCF
     14  -3.53113837E+003 -1.75467233E+000   2.60099804E-009   14148.21  <-- SCF
     15  -3.53113837E+003 -1.75467236E+000   3.94559893E-009   14196.51  <-- SCF
     16  -3.53113837E+003 -1.75467239E+000   6.44384604E-010   14244.50  <-- SCF
     17  -3.53113837E+003 -1.75467239E+000   7.40248645E-012   14299.57  <-- SCF
     18  -3.53113837E+003 -1.75467239E+000   7.03052071E-011   14347.78  <-- SCF
     19  -3.53113837E+003 -1.75467239E+000   2.48149023E-010   14395.89  <-- SCF
     20  -3.53113837E+003 -1.75467239E+000   8.72830492E-012   14445.66  <-- SCF
     21  -3.53113837E+003 -1.75467239E+000  -8.75776755E-011   14492.94  <-- SCF
     22  -3.53113837E+003 -1.75467239E+000  -7.06734900E-011   14542.84  <-- SCF
     23  -3.53113837E+003 -1.75467239E+000  -5.89252653E-013   14592.86  <-- SCF
     24  -3.53113837E+003 -1.75467239E+000   4.78767780E-013   14638.77  <-- SCF
------------------------------------------------------------------------ <-- SCF

Final energy, E             =  -3531.136215349     eV
Final free energy (E-TS)    =  -3531.138367728     eV
(energies not corrected for finite basis set)

NB est. 0K energy (E-0.5TS)      =  -3531.137291539     eV

[...]

 ***************** Stress Tensor *****************
 *          Cartesian components (GPa)           *
 *             x             y             z     *
 *  x      0.328430     -0.030052     -0.073448  *
 *  y     -0.030052      0.168928      0.005062  *
 *  z     -0.073448      0.005062     -1.171502  *
 *  Pressure:    0.2247                          *

 *********** Constrained Stress Tensor ***********
 *          Cartesian components (GPa)           *
 *             x             y             z     *
 *  x      0.000000      0.000000      0.000000  *
 *  y      0.000000     -0.000000     -0.000000  *
 *  z      0.000000     -0.000000     -0.000013  *
 *  Pressure:    0.0000                          *

 +------------+-------------+-------------+-----------------+ <-- min LBFGS
 |    Step    |   lambda    |   F.delta'  |    enthalpy     | <-- min LBFGS
 +------------+-------------+-------------+-----------------+ <-- min LBFGS
 |  previous  |    0.000000 |    0.000220 |    -3531.138362 | <-- min LBFGS
 | trial step |    1.000000 |    0.000218 |    -3531.138367 | <-- min LBFGS
 +------------+-------------+-------------+-----------------+ <-- min LBFGS

 LBFGS: finished iteration     2 with enthalpy= -3.53113837E+003 eV

 +-----------+-----------------+-----------------+------------+-----+ <-- LBFGS
 | Parameter |      value      |    tolerance    |    units   | OK? | <-- LBFGS
 +-----------+-----------------+-----------------+------------+-----+ <-- LBFGS
 |  dE/ion   |   2.458242E-007 |   2.000000E-005 |         eV | Yes | <-- LBFGS
 |  |F|max   |   7.593090E-004 |   1.000000E-003 |       eV/A | Yes | <-- LBFGS
 |  |dR|max  |   4.308343E-005 |   1.000000E-003 |          A | Yes | <-- LBFGS
 |   Smax    |   1.315633E-005 |   1.000000E-001 |        GPa | Yes | <-- LBFGS
 +-----------+-----------------+-----------------+------------+-----+ <-- LBFGS

 LBFGS: Geometry optimization completed successfully.

 LBFGS: Final Configuration:

                                      Unit Cell
        Real Lattice(A)              Reciprocal Lattice(1/A)
    19.1230500    -0.7864580    -0.0047570        0.327993638  -0.013922938   0.000679312
     0.7854600    18.5034760    -0.0046140        0.013940789   0.338976058  -0.000004179
    -0.0050620     0.0002384     2.4489770        0.000663370   0.000611604   2.565638022

                       Lattice parameters(A)       Cell Angles
                    a =     19.139216          alpha =   90.013725
                    b =     18.520140          beta  =   90.132799
                    c =      2.448982          gamma =   89.924318

                Current cell volume =           868.065483 A**3
                            density =             0.287105 amu/A**3
                                    =             0.476750 g/cm^3

                                     Cell Contents

            x  Element         Atom        Fractional coordinates of atoms  x
            x                 Number           u          v          w      x
            x  Be                1         0.457605   0.540445   0.378843   x
            x  C                 1         0.637488   0.517014   0.501460   x
            x  C                 2         0.589954   0.412524   0.001071   x
            x  C                 3         0.491373   0.357769   0.500639   x
            x  C                 4         0.380040   0.371745   0.000306   x
            x  C                 5         0.298018   0.450612   0.500147   x
            x  C                 6         0.276945   0.564155   0.000180   x
            x  C                 7         0.324522   0.668664   0.500657   x
            x  C                 8         0.423017   0.723518   0.001089   x
            x  C                 9         0.534384   0.709383   0.501415   x
            x  C                10         0.616447   0.630610   0.001432   x
            x  C                11         0.628906   0.478814   0.001262   x
            x  C                12         0.560973   0.387169   0.500799   x
            x  C                13         0.453422   0.354561   0.000248   x
            x  C                14         0.347276   0.391806   0.500087   x
            x  C                15         0.283314   0.486838   0.000018   x
            x  C                16         0.285587   0.602341   0.500405   x
            x  C                17         0.353429   0.694116   0.000939   x
            x  C                18         0.460982   0.726579   0.501477   x
            x  C                19         0.567196   0.689402   0.001613   x
            x  C                20         0.631102   0.594358   0.501536   x

 LBFGS: Final Enthalpy     = -3.53113837E+003 eV
 LBFGS: Final <frequency>  unchanged from initial value
 LBFGS: Final bulk modulus unchanged from initial value

 ************************************** Forces **************************************
 *                           Cartesian components (eV/A)                            *
 *                         x                    y                    z              *
 * Be              1     -0.00130             -0.02219              0.00289         *
 * C               1     -0.02196              0.00862              0.01017         *
 * C               2     -0.07061              0.01072              0.00564         *
 * C               3     -0.04359              0.03815             -0.00046         *
 * C               4      0.02695              0.02650             -0.01129         *
 * C               5      0.05636             -0.00039             -0.01363         *
 * C               6      0.01012             -0.00027             -0.00993         *
 * C               7      0.07841             -0.00875             -0.00641         *
 * C               8      0.03982             -0.03851              0.00004         *
 * C               9     -0.03216             -0.03451              0.00910         *
 * C              10     -0.04393              0.00916              0.01416         *
 * C              11     -0.00908              0.01064              0.01156         *
 * C              12     -0.07280              0.02137              0.00961         *
 * C              13      0.01336              0.00988              0.00531         *
 * C              14      0.09792              0.06354             -0.00324         *
 * C              15      0.00877             -0.03622             -0.00838         *
 * C              16      0.02155             -0.01286             -0.01257         *
 * C              17      0.07090             -0.01457             -0.01123         *
 * C              18     -0.01562             -0.00818             -0.00598         *
 * C              19     -0.09205             -0.05862              0.00235         *
 * C              20     -0.02106              0.03648              0.01229         *

 Pseudo atomic calculation performed for Be 1s2 2s2

 Converged in 25 iterations to a total energy of -389.3029 eV

 Pseudo atomic calculation performed for C 2s2 2p2

 Converged in 36 iterations to a total energy of -148.5530 eV
Charge spilling parameter for spin component 1 = 0.99%

            Orbital Populations
     Ion    Atom   Orbital             Charge
     Be     1      S                    2.000
     Be     1      S                    1.102
     Be     1      Px                  -0.053
     Be     1      Py                  -0.053
     Be     1      Pz                   0.815
      C     1      S                    1.057
      C     1      Px                   1.005
      C     1      Py                   0.974
      C     1      Pz                   0.974
      C     2      S                    1.057
      C     2      Px                   0.986
      C     2      Py                   0.992
      C     2      Pz                   0.974
      C     3      S                    1.058
      C     3      Px                   0.972
      C     3      Py                   1.007
      C     3      Pz                   0.974
      C     4      S                    1.057
      C     4      Px                   0.981
      C     4      Py                   0.996
      C     4      Pz                   0.974
      C     5      S                    1.058
      C     5      Px                   1.002
      C     5      Py                   0.977
      C     5      Pz                   0.974
      C     6      S                    1.056
      C     6      Px                   1.004
      C     6      Py                   0.974
      C     6      Pz                   0.974
      C     7      S                    1.057
      C     7      Px                   0.987
      C     7      Py                   0.992
      C     7      Pz                   0.974
      C     8      S                    1.057
      C     8      Px                   0.972
      C     8      Py                   1.006
      C     8      Pz                   0.974
      C     9      S                    1.058
      C     9      Px                   0.981
      C     9      Py                   0.998
      C     9      Pz                   0.974
      C    10      S                    1.057
      C    10      Px                   1.001
      C    10      Py                   0.976
      C    10      Pz                   0.974
      C    11      S                    1.056
      C    11      Px                   1.003
      C    11      Py                   0.975
      C    11      Pz                   0.975
      C    12      S                    1.057
      C    12      Px                   0.984
      C    12      Py                   0.995
      C    12      Pz                   0.974
      C    13      S                    1.057
      C    13      Px                   0.972
      C    13      Py                   1.006
      C    13      Pz                   0.974
      C    14      S                    1.058
      C    14      Px                   0.984
      C    14      Py                   0.995
[...]
      C    17      Px                   0.984
      C    17      Py                   0.994
      C    17      Pz                   0.974
      C    18      S                    1.058
      C    18      Px                   0.972
      C    18      Py                   1.007
      C    18      Pz                   0.974
      C    19      S                    1.057
      C    19      Px                   0.983
      C    19      Py                   0.994
      C    19      Pz                   0.974
      C    20      S                    1.057
      C    20      Px                   1.003
      C    20      Py                   0.976
      C    20      Pz                   0.974
                           Total:      83.998

     Atomic Populations (Mulliken)
Species          Ion     s       p       d       f      Total   Charge (e)
  Be              1     3.102   0.709   0.000   0.000   3.811     0.189
  C               1     1.057   2.954   0.000   0.000   4.010    -0.010
  C               2     1.057   2.952   0.000   0.000   4.008    -0.008
  C               3     1.058   2.953   0.000   0.000   4.011    -0.011
  C               4     1.057   2.951   0.000   0.000   4.008    -0.008
  C               5     1.058   2.953   0.000   0.000   4.010    -0.010
  C               6     1.056   2.952   0.000   0.000   4.008    -0.008
  C               7     1.057   2.953   0.000   0.000   4.010    -0.010
  C               8     1.057   2.952   0.000   0.000   4.009    -0.009
  C               9     1.058   2.953   0.000   0.000   4.010    -0.010
  C              10     1.057   2.952   0.000   0.000   4.009    -0.009
  C              11     1.056   2.952   0.000   0.000   4.008    -0.008
  C              12     1.057   2.953   0.000   0.000   4.010    -0.010
  C              13     1.057   2.952   0.000   0.000   4.009    -0.009
  C              14     1.058   2.952   0.000   0.000   4.010    -0.010
  C              15     1.056   2.952   0.000   0.000   4.008    -0.008
  C              16     1.057   2.953   0.000   0.000   4.010    -0.010
  C              17     1.057   2.951   0.000   0.000   4.008    -0.008
  C              18     1.058   2.953   0.000   0.000   4.011    -0.011
  C              19     1.057   2.951   0.000   0.000   4.008    -0.008
  C              20     1.057   2.953   0.000   0.000   4.010    -0.010

                 Bond                   Population      Length (A)
              C 2  -- C 12                   2.19        1.42353
              C 7  -- C 17                   2.19        1.42360
              C 1  -- C 11                   2.19        1.42373
              C 6  -- C 16                   2.19        1.42379
              C 10 -- C 20                   2.19        1.42399
              C 5  -- C 15                   2.19        1.42400
              C 9  -- C 19                   2.19        1.42405
              C 4  -- C 14                   2.19        1.42408
              C 3  -- C 13                   2.19        1.42436
              C 8  -- C 18                   2.19        1.42437
              C 6  -- C 15                   0.87        1.43694
              C 2  -- C 11                   0.87        1.43716
              C 1  -- C 20                   0.87        1.43748
              C 7  -- C 16                   0.87        1.43751
              C 10 -- C 19                   0.87        1.43924
              C 5  -- C 14                   0.87        1.43951
              C 8  -- C 17                   0.87        1.43954
              C 4  -- C 13                   0.87        1.43968
              C 3  -- C 12                   0.87        1.43973
              C 9  -- C 18                   0.87        1.44008

Writing analysis data to BeC_tube+wire.castep_bin

Writing model to BeC_tube+wire.check

 A BibTeX formatted list of references used in this run has been written to
 BeC_tube+wire.bib

Initialisation time =      9.19 s
Calculation time    =  15047.40 s
Finalisation time   =     19.09 s
Total time          =  15075.67 s

Overall parallel efficiency rating: Excellent (95%)

Data was distributed by:-
k-point (250-way); efficiency rating: Excellent (95%)