 Run started: Thu, 24 Mar 2022 13:00:29 +0000

 Atomic calculation performed for Be: 1s2 2s2

 Converged in 44 iterations to an ae energy of -399.040 eV

   | Pseudopotential Report - Date of generation 24-03-2022   |
   | Element: Be Ionic charge:  4.00 Level of theory: BLYP    |
   | Atomic Solver: Koelling-Harmon                           |
   |               Reference Electronic Structure             |
   |         Orbital         Occupation         Energy        |
   |            1s              2.000           -3.917        |
   |            2s              2.000           -0.201        |
   |                 Pseudopotential Definition               |
   |        Beta     l      e      Rc     scheme   norm       |
   |          1      0   -3.917   0.996     qc      0         |
   |          2      0   -0.201   0.996     qc      0         |
   |          3      0    0.250   0.996     qc      0         |
   |          4      1    0.000   0.996     qc      0         |
   |          5      1    0.250   0.996     qc      0         |
   |         loc     2    0.000   0.996     pn      0         |
   | Augmentation charge Rinner = 0.702                       |
   | No partial core correction                               |
   | "2|1.0|14|16|18|10U:20:21(qc=7)"                         |
   |      Author: Chris J. Pickard, Cambridge University      |

 Atomic calculation performed for C: 1s2 2s2 2p2

 Converged in 56 iterations to an ae energy of -1029.069 eV

   | Pseudopotential Report - Date of generation 24-03-2022   |
   | Element: C Ionic charge:  4.00 Level of theory: BLYP     |
   | Atomic Solver: Koelling-Harmon                           |
   |               Reference Electronic Structure             |
   |         Orbital         Occupation         Energy        |
   |            2s              2.000           -0.500        |
   |            2p              2.000           -0.192        |
   |                 Pseudopotential Definition               |
   |        Beta     l      e      Rc     scheme   norm       |
   |          1      0   -0.500   1.395     qc      0         |
   |          2      0    0.250   1.395     qc      0         |
   |          3      1   -0.192   1.395     qc      0         |
   |          4      1    0.250   1.395     qc      0         |
   |         loc     2    0.000   1.395     pn      0         |
   | Augmentation charge Rinner = 0.983                       |
   | Partial core correction Rc = 0.983                       |
   | "2|1.4|10|12|13|20:21(qc=7)"                             |
   |      Author: Chris J. Pickard, Cambridge University      |

 Pseudo atomic calculation performed for Be 1s2 2s2

 Converged in 25 iterations to a total energy of -389.3029 eV

 Pseudo atomic calculation performed for C 2s2 2p2

 Converged in 36 iterations to a total energy of -148.5530 eV
 Calculation parallelised over 250 processes.
 Data is distributed by k-point(250-way)

 ************************************ Title ************************************

 ***************************** General Parameters ******************************

 output verbosity                               : normal  (1)
 write checkpoint data to                       : BeC_tube+wire.check
 type of calculation                            : geometry optimization
 stress calculation                             : off
 density difference calculation                 : off
 electron localisation func (ELF) calculation   : off
 Hirshfeld analysis                             : off
 polarisation (Berry phase) analysis            : off
 molecular orbital projected DOS                : off
 deltaSCF calculation                           : off
 unlimited duration calculation
 timing information                             : on
 write extra output files                       : on
 write final potential to formatted file        : off
 write final density to formatted file          : off
 write BibTeX reference list                    : on
 write OTFG pseudopotential files               : on
 write electrostatic potential file             : on
 write bands file                               : on
 checkpoint writing                             : both castep_bin and check files

 output         length unit                     : A
 output           mass unit                     : amu
 output           time unit                     : ps
 output         charge unit                     : e
 output           spin unit                     : hbar/2
 output         energy unit                     : eV
 output          force unit                     : eV/A
 output       velocity unit                     : A/ps
 output       pressure unit                     : GPa
 output     inv_length unit                     : 1/A
 output      frequency unit                     : cm-1
 output force constant unit                     : eV/A**2
 output         volume unit                     : A**3
 output   IR intensity unit                     : (D/A)**2/amu
 output         dipole unit                     : D
 output         efield unit                     : eV/A/e
 output        entropy unit                     : J/mol/K
 output    efield chi2 unit                     : pm/V

 wavefunctions paging                           : none
 random number generator seed                   : randomised (130029396)
 data distribution                              : k-point only
 optimization strategy                          : maximize speed(+++)

 *********************** Exchange-Correlation Parameters ***********************

 using functional                               : BLYP
 relativistic treatment                         : Koelling-Harmon
 DFT+D: Semi-empirical dispersion correction    : off

 ************************* Pseudopotential Parameters **************************

 pseudopotential representation                 : reciprocal space
 <beta|phi> representation                      : reciprocal space
 spin-orbit coupling                            : off

 **************************** Basis Set Parameters *****************************

 plane wave basis set cut-off                   :  1000.0000   eV
 size of standard grid                          :     2.0000
 size of   fine   gmax                          :    32.4018   1/A
 finite basis set correction                    : automatic
 number of sample energies                      :          3
           sample  spacing                      :     5.0000   eV

 **************************** Electronic Parameters ****************************

 number of  electrons                           :  84.00
 net charge of system                           :  0.000
 treating system as non-spin-polarized
 number of bands                                :         77

 ********************* Electronic Minimization Parameters **********************

 Method: Treating system as metallic with density mixing treatment of electrons,
         and number of  SD  steps               :          1
         and number of  CG  steps               :          4

 total energy / atom convergence tol.           : 0.1000E-10   eV
 eigen-energy convergence tolerance             : 0.2727E-11   eV
 max force / atom convergence tol.              : ignored
 convergence tolerance window                   :          3   cycles
 max. number of SCF cycles                      :        200
 number of fixed-spin iterations                :         10
 smearing scheme                                : Gaussian
 smearing width                                 : 0.5000E-01   eV
 Fermi energy convergence tolerance             : 0.2721E-13   eV
 periodic dipole correction                     : NONE

 ************************** Density Mixing Parameters **************************

 density-mixing scheme                          : Pulay
 max. length of mixing history                  :         20
 charge density mixing amplitude                : 0.8000
 cut-off energy for mixing                      :  1000.       eV

 *********************** Population Analysis Parameters ************************

 Population analysis with cutoff                :  3.000       A
 Population analysis output                     : summary and pdos components

 ********************** Geometry Optimization Parameters ***********************

 optimization method                            : LBFGS
 max. no. of LBFGS updates                      : unbounded
 variable cell method                           : fixed basis quality
 max. number of steps                           :         30
 estimated bulk modulus                         :  500.0       GPa
 estimated <frequency>                          :  1668.       cm-1
 geom line minimiser                            : on
 with line minimiser tolerance                  :     0.4000
 total energy convergence tolerance             : 0.2000E-04   eV/atom
        max ionic |force| tolerance             : 0.5000E-01   eV/A
 max ionic |displacement| tolerance             : 0.1000E-02   A
   max |stress component| tolerance             : 0.1000       GPa
 convergence tolerance window                   :          2   steps
 backup results every                           :          5   steps
 write geom trajectory file                     : on

                                      Unit Cell
        Real Lattice(A)                      Reciprocal Lattice(1/A)
    19.1230500    -0.7864580    -0.0047370        0.327993637  -0.013922938   0.000679655
     0.7854600    18.5034760    -0.0046120        0.013940789   0.338976058  -0.000004143
    -0.0050600     0.0002380     2.4467730        0.000661279   0.000611992   2.567949094

                       Lattice parameters(A)       Cell Angles
                    a =     19.139216          alpha =   90.013725
                    b =     18.520140          beta  =   90.132799
                    c =      2.446778          gamma =   89.924318

                       Current cell volume =           867.284252       A**3
                                   density =             0.287364   AMU/A**3
                                           =             0.477179     g/cm^3

                                     Cell Contents
                         Total number of ions in cell =   21
                      Total number of species in cell =    2
                        Max number of any one species =   20

            x  Element    Atom        Fractional coordinates of atoms  x
            x            Number           u          v          w      x
            x  Be           1         0.457604   0.540465   0.378835   x
            x  C            1         0.637640   0.516852   0.501116   x
            x  C            2         0.590200   0.412531   0.000824   x
            x  C            3         0.491425   0.357645   0.500567   x
            x  C            4         0.379890   0.371681   0.000353   x
            x  C            5         0.297847   0.450562   0.500339   x
            x  C            6         0.276806   0.564321   0.000558   x
            x  C            7         0.324272   0.668656   0.500952   x
[...]
     23  -3.53116105E+003 -1.77665154E+000   4.66469267E-007   63761.89  <-- SCF
     24  -3.53116106E+003 -1.77665470E+000   3.47652141E-007   63815.75  <-- SCF
     25  -3.53116106E+003 -1.77665492E+000   1.03370936E-007   63871.21  <-- SCF
     26  -3.53116106E+003 -1.77665444E+000   5.44010939E-008   63925.01  <-- SCF
     27  -3.53116106E+003 -1.77665444E+000   4.92412662E-009   63978.83  <-- SCF
     28  -3.53116106E+003 -1.77665449E+000   1.82166353E-008   64032.15  <-- SCF
     29  -3.53116106E+003 -1.77665417E+000   3.20973286E-009   64083.91  <-- SCF
     30  -3.53116106E+003 -1.77665584E+000  -2.46530420E-008   64136.64  <-- SCF
     31  -3.53116106E+003 -1.77665552E+000  -3.85491663E-008   64189.44  <-- SCF
     32  -3.53116106E+003 -1.77665569E+000  -2.59029942E-008   64240.68  <-- SCF
     33  -3.53116106E+003 -1.77665546E+000   1.24184997E-009   64291.48  <-- SCF
     34  -3.53116106E+003 -1.77665548E+000  -4.23101819E-009   64340.91  <-- SCF
     35  -3.53116106E+003 -1.77665545E+000   6.69096387E-009   64390.33  <-- SCF
     36  -3.53116106E+003 -1.77665547E+000   2.99520806E-009   64440.15  <-- SCF
     37  -3.53116106E+003 -1.77665552E+000   7.27156188E-009   64489.49  <-- SCF
     38  -3.53116106E+003 -1.77665554E+000   1.17150793E-010   64540.81  <-- SCF
     39  -3.53116106E+003 -1.77665554E+000   1.72875680E-009   64590.43  <-- SCF
     40  -3.53116106E+003 -1.77665555E+000   2.79895010E-012   64645.52  <-- SCF
     41  -3.53116106E+003 -1.77665555E+000  -2.12204612E-010   64694.09  <-- SCF
     42  -3.53116106E+003 -1.77665555E+000   3.88022872E-010   64742.59  <-- SCF
     43  -3.53116106E+003 -1.77665555E+000   2.17286916E-012   64792.62  <-- SCF
     44  -3.53116106E+003 -1.77665554E+000   6.17831406E-010   64841.86  <-- SCF
     45  -3.53116106E+003 -1.77665554E+000  -1.87456000E-011   64892.49  <-- SCF
     46  -3.53116106E+003 -1.77665554E+000   8.24953714E-012   64935.62  <-- SCF
     47  -3.53116106E+003 -1.77665554E+000  -8.83878979E-013   64978.37  <-- SCF
     48  -3.53116106E+003 -1.77665554E+000  -8.21270885E-012   65021.08  <-- SCF
     49  -3.53116106E+003 -1.77665554E+000  -2.65163694E-012   65063.81  <-- SCF
     50  -3.53116106E+003 -1.77665554E+000   6.77640551E-012   65106.53  <-- SCF
------------------------------------------------------------------------ <-- SCF

Final energy, E             =  -3531.158928756     eV
Final free energy (E-TS)    =  -3531.161058068     eV
(energies not corrected for finite basis set)

NB est. 0K energy (E-0.5TS)      =  -3531.159993412     eV

[...]

 ***************** Stress Tensor *****************
 *          Cartesian components (GPa)           *
 *             x             y             z     *
 *  x      0.234137     -0.004165     -0.063925  *
 *  y     -0.004165      0.183272      0.004263  *
 *  z     -0.063925      0.004263     -0.098308  *
 *  Pressure:   -0.1064                          *

 *********** Constrained Stress Tensor ***********
 *          Cartesian components (GPa)           *
 *             x             y             z     *
 *  x      0.000000      0.000000     -0.000108  *
 *  y      0.000000     -0.000000     -0.000030  *
 *  z     -0.000108     -0.000030     -0.098250  *
 *  Pressure:    0.0328                          *

 +------------+-------------+-------------+-----------------+ <-- min LBFGS
 |    Step    |   lambda    |   F.delta'  |    enthalpy     | <-- min LBFGS
 +------------+-------------+-------------+-----------------+ <-- min LBFGS
 |  previous  |    0.000000 |    0.068132 |    -3531.160778 | <-- min LBFGS
 | trial step |    1.000000 |    0.065001 |    -3531.161057 | <-- min LBFGS
 +------------+-------------+-------------+-----------------+ <-- min LBFGS

 LBFGS: finished iteration    19 with enthalpy= -3.53116106E+003 eV

 +-----------+-----------------+-----------------+------------+-----+ <-- LBFGS
 | Parameter |      value      |    tolerance    |    units   | OK? | <-- LBFGS
 +-----------+-----------------+-----------------+------------+-----+ <-- LBFGS
 |  dE/ion   |   1.330074E-005 |   2.000000E-005 |         eV | Yes | <-- LBFGS
 |  |F|max   |   4.896874E-002 |   5.000000E-002 |       eV/A | Yes | <-- LBFGS
 |  |dR|max  |   4.202089E-004 |   1.000000E-003 |          A | Yes | <-- LBFGS
 |   Smax    |   9.825039E-002 |   1.000000E-001 |        GPa | Yes | <-- LBFGS
 +-----------+-----------------+-----------------+------------+-----+ <-- LBFGS

 LBFGS: Geometry optimization completed successfully.

 LBFGS: Final Configuration:

                                      Unit Cell
        Real Lattice(A)              Reciprocal Lattice(1/A)
    19.1230500    -0.7864580    -0.0048372        0.327993641  -0.013922938   0.000677937
     0.7854600    18.5034760    -0.0046266        0.013940790   0.338976058  -0.000004408
    -0.0050784     0.0002409     2.4619122        0.000670644   0.000609678   2.552157903

                       Lattice parameters(A)       Cell Angles
                    a =     19.139216          alpha =   90.013725
                    b =     18.520140          beta  =   90.132799
                    c =      2.461917          gamma =   89.924318

                Current cell volume =           872.650475 A**3
                            density =             0.285597 amu/A**3
                                    =             0.474245 g/cm^3

                                     Cell Contents

            x  Element         Atom        Fractional coordinates of atoms  x
            x                 Number           u          v          w      x
            x  Be                1         0.457593   0.540296   0.378935   x
            x  C                 1         0.637406   0.517037   0.501855   x
            x  C                 2         0.589653   0.412683   0.001338   x
            x  C                 3         0.491236   0.357920   0.500715   x
            x  C                 4         0.380199   0.372002   0.000062   x
            x  C                 5         0.298244   0.450731   0.499771   x
            x  C                 6         0.276995   0.564158  -0.000199   x
            x  C                 7         0.324847   0.668514   0.500352   x
            x  C                 8         0.423150   0.723378   0.000976   x
            x  C                 9         0.534214   0.709108   0.501606   x
            x  C                10         0.616250   0.630533   0.001869   x
            x  C                11         0.628806   0.478892   0.001642   x
            x  C                12         0.560725   0.387393   0.501056   x
            x  C                13         0.453453   0.354652   0.000297   x
            x  C                14         0.347651   0.392147   0.499841   x
            x  C                15         0.283393   0.486799  -0.000351   x
            x  C                16         0.285717   0.602272   0.500023   x
            x  C                17         0.353676   0.693920   0.000636   x
            x  C                18         0.460946   0.726487   0.501390   x
            x  C                19         0.566834   0.689087   0.001824   x
            x  C                20         0.630993   0.594415   0.501988   x

 LBFGS: Final Enthalpy     = -3.53116106E+003 eV
 LBFGS: Final <frequency>  unchanged from initial value
 LBFGS: Final bulk modulus unchanged from initial value

 ************************************** Forces **************************************
 *                           Cartesian components (eV/A)                            *
 *                         x                    y                    z              *
 * Be              1     -0.00523             -0.01813              0.00310         *
 * C               1     -0.02805              0.00619              0.00992         *
 * C               2     -0.03640              0.03113              0.00703         *
 * C               3     -0.00780              0.01728              0.00183         *
 * C               4      0.02139              0.03245             -0.00459         *
 * C               5      0.03412              0.01788             -0.00892         *
 * C               6      0.02750             -0.00353             -0.00997         *
 * C               7      0.03789             -0.02963             -0.00766         *
 * C               8      0.00833             -0.01593             -0.00253         *
 * C               9     -0.02149             -0.03196              0.00414         *
 * C              10     -0.03286             -0.01480              0.00920         *
 * C              11     -0.03196              0.01574              0.00951         *
 * C              12     -0.02663              0.03343              0.00601         *
 * C              13      0.00302              0.01526              0.00036         *
 * C              14      0.03485              0.03391             -0.00581         *
 * C              15      0.02869              0.00633             -0.00952         *
 * C              16      0.03292             -0.01362             -0.00969         *
 * C              17      0.02741             -0.03147             -0.00670         *
 * C              18     -0.00274             -0.01515             -0.00103         *
 * C              19     -0.03414             -0.03170              0.00548         *
 * C              20     -0.02883             -0.00369              0.00983         *

 Pseudo atomic calculation performed for Be 1s2 2s2

 Converged in 25 iterations to a total energy of -389.3029 eV

 Pseudo atomic calculation performed for C 2s2 2p2

 Converged in 36 iterations to a total energy of -148.5530 eV
Charge spilling parameter for spin component 1 = 0.99%

            Orbital Populations
     Ion    Atom   Orbital             Charge
     Be     1      S                    2.000
     Be     1      S                    1.108
     Be     1      Px                  -0.053
     Be     1      Py                  -0.053
     Be     1      Pz                   0.807
      C     1      S                    1.059
      C     1      Px                   1.005
      C     1      Py                   0.973
      C     1      Pz                   0.973
      C     2      S                    1.059
      C     2      Px                   0.985
      C     2      Py                   0.992
      C     2      Pz                   0.973
      C     3      S                    1.059
      C     3      Px                   0.971
      C     3      Py                   1.007
      C     3      Pz                   0.973
      C     4      S                    1.059
      C     4      Px                   0.981
      C     4      Py                   0.996
      C     4      Pz                   0.973
      C     5      S                    1.059
      C     5      Px                   1.002
      C     5      Py                   0.976
      C     5      Pz                   0.973
      C     6      S                    1.059
      C     6      Px                   1.003
      C     6      Py                   0.973
      C     6      Pz                   0.973
      C     7      S                    1.059
      C     7      Px                   0.986
      C     7      Py                   0.992
      C     7      Pz                   0.973
      C     8      S                    1.059
      C     8      Px                   0.971
      C     8      Py                   1.006
      C     8      Pz                   0.973
      C     9      S                    1.059
      C     9      Px                   0.981
      C     9      Py                   0.998
      C     9      Pz                   0.973
      C    10      S                    1.059
      C    10      Px                   1.001
      C    10      Py                   0.976
      C    10      Pz                   0.973
      C    11      S                    1.059
      C    11      Px                   1.003
      C    11      Py                   0.974
      C    11      Pz                   0.973
      C    12      S                    1.059
      C    12      Px                   0.983
      C    12      Py                   0.995
      C    12      Pz                   0.973
      C    13      S                    1.059
      C    13      Px                   0.971
      C    13      Py                   1.006
      C    13      Pz                   0.973
      C    14      S                    1.060
      C    14      Px                   0.983
      C    14      Py                   0.995
[...]
      C    17      Px                   0.983
      C    17      Py                   0.993
      C    17      Pz                   0.973
      C    18      S                    1.059
      C    18      Px                   0.971
      C    18      Py                   1.007
      C    18      Pz                   0.973
      C    19      S                    1.059
      C    19      Px                   0.982
      C    19      Py                   0.994
      C    19      Pz                   0.973
      C    20      S                    1.059
      C    20      Px                   1.003
      C    20      Py                   0.975
      C    20      Pz                   0.973
                           Total:      83.999

     Atomic Populations (Mulliken)
Species          Ion     s       p       d       f      Total   Charge (e)
  Be              1     3.107   0.701   0.000   0.000   3.809     0.191
  C               1     1.059   2.951   0.000   0.000   4.010    -0.010
  C               2     1.059   2.950   0.000   0.000   4.008    -0.008
  C               3     1.059   2.952   0.000   0.000   4.011    -0.011
  C               4     1.059   2.950   0.000   0.000   4.009    -0.009
  C               5     1.059   2.951   0.000   0.000   4.010    -0.010
  C               6     1.059   2.949   0.000   0.000   4.008    -0.008
  C               7     1.059   2.951   0.000   0.000   4.010    -0.010
  C               8     1.059   2.950   0.000   0.000   4.009    -0.009
  C               9     1.059   2.951   0.000   0.000   4.010    -0.010
  C              10     1.059   2.949   0.000   0.000   4.008    -0.008
  C              11     1.059   2.949   0.000   0.000   4.008    -0.008
  C              12     1.059   2.951   0.000   0.000   4.011    -0.011
  C              13     1.059   2.950   0.000   0.000   4.009    -0.009
  C              14     1.060   2.951   0.000   0.000   4.011    -0.011
  C              15     1.059   2.950   0.000   0.000   4.008    -0.008
  C              16     1.059   2.951   0.000   0.000   4.010    -0.010
  C              17     1.059   2.950   0.000   0.000   4.008    -0.008
  C              18     1.059   2.952   0.000   0.000   4.011    -0.011
  C              19     1.059   2.950   0.000   0.000   4.008    -0.008
  C              20     1.059   2.951   0.000   0.000   4.010    -0.010

                 Bond                   Population      Length (A)
              C 4  -- C 14                   2.18        1.42825
              C 9  -- C 19                   2.18        1.42825
              C 7  -- C 17                   2.18        1.42831
              C 2  -- C 12                   2.18        1.42832
              C 8  -- C 18                   2.19        1.42839
              C 3  -- C 13                   2.19        1.42840
              C 5  -- C 15                   2.18        1.42873
              C 10 -- C 20                   2.19        1.42874
              C 6  -- C 16                   2.18        1.42887
              C 1  -- C 11                   2.19        1.42887
              C 6  -- C 15                   0.88        1.43776
              C 2  -- C 11                   0.88        1.43790
              C 8  -- C 17                   0.88        1.43792
              C 4  -- C 13                   0.88        1.43797
              C 10 -- C 19                   0.88        1.43799
              C 1  -- C 20                   0.88        1.43815
              C 7  -- C 16                   0.88        1.43818
              C 5  -- C 14                   0.88        1.43828
              C 3  -- C 12                   0.88        1.43829
              C 9  -- C 18                   0.88        1.43834

Writing analysis data to BeC_tube+wire.castep_bin

Writing model to BeC_tube+wire.check

 A BibTeX formatted list of references used in this run has been written to
 BeC_tube+wire.bib

Initialisation time =      9.23 s
Calculation time    =  65515.32 s
Finalisation time   =     27.54 s
Total time          =  65552.10 s

Overall parallel efficiency rating: Excellent (96%)

Data was distributed by:-
k-point (250-way); efficiency rating: Excellent (96%)