 Run started: Thu, 24 Mar 2022 14:56:31 +0000

 Atomic calculation performed for C: 1s2 2s2 2p2

 Converged in 56 iterations to an ae energy of -1029.069 eV

   | Pseudopotential Report - Date of generation 24-03-2022   |
   | Element: C Ionic charge:  4.00 Level of theory: BLYP     |
   | Atomic Solver: Koelling-Harmon                           |
   |               Reference Electronic Structure             |
   |         Orbital         Occupation         Energy        |
   |            2s              2.000           -0.500        |
   |            2p              2.000           -0.192        |
   |                 Pseudopotential Definition               |
   |        Beta     l      e      Rc     scheme   norm       |
   |          1      0   -0.500   1.395     qc      0         |
   |          2      0    0.250   1.395     qc      0         |
   |          3      1   -0.192   1.395     qc      0         |
   |          4      1    0.250   1.395     qc      0         |
   |         loc     2    0.000   1.395     pn      0         |
   | Augmentation charge Rinner = 0.983                       |
   | Partial core correction Rc = 0.983                       |
   | "2|1.4|10|12|13|20:21(qc=7)"                             |
   |      Author: Chris J. Pickard, Cambridge University      |

 Pseudo atomic calculation performed for C 2s2 2p2

 Converged in 36 iterations to a total energy of -148.5530 eV
 Calculation parallelised over 250 processes.
 Data is distributed by k-point(250-way)

 ************************************ Title ************************************

 ***************************** General Parameters ******************************

 output verbosity                               : normal  (1)
 write checkpoint data to                       : C_nanotube.check
 type of calculation                            : geometry optimization
 stress calculation                             : off
 density difference calculation                 : off
 electron localisation func (ELF) calculation   : off
 Hirshfeld analysis                             : off
 polarisation (Berry phase) analysis            : off
 molecular orbital projected DOS                : off
 deltaSCF calculation                           : off
 unlimited duration calculation
 timing information                             : on
 write extra output files                       : on
 write final potential to formatted file        : off
 write final density to formatted file          : off
 write BibTeX reference list                    : on
 write OTFG pseudopotential files               : on
 write electrostatic potential file             : on
 write bands file                               : on
 checkpoint writing                             : both castep_bin and check files

 output         length unit                     : A
 output           mass unit                     : amu
 output           time unit                     : ps
 output         charge unit                     : e
 output           spin unit                     : hbar/2
 output         energy unit                     : eV
 output          force unit                     : eV/A
 output       velocity unit                     : A/ps
 output       pressure unit                     : GPa
 output     inv_length unit                     : 1/A
 output      frequency unit                     : cm-1
 output force constant unit                     : eV/A**2
 output         volume unit                     : A**3
 output   IR intensity unit                     : (D/A)**2/amu
 output         dipole unit                     : D
 output         efield unit                     : eV/A/e
 output        entropy unit                     : J/mol/K
 output    efield chi2 unit                     : pm/V

 wavefunctions paging                           : none
 random number generator seed                   : randomised (145631597)
 data distribution                              : k-point only
 optimization strategy                          : maximize speed(+++)

 *********************** Exchange-Correlation Parameters ***********************

 using functional                               : BLYP
 relativistic treatment                         : Koelling-Harmon
 DFT+D: Semi-empirical dispersion correction    : off

 ************************* Pseudopotential Parameters **************************

 pseudopotential representation                 : reciprocal space
 <beta|phi> representation                      : reciprocal space
 spin-orbit coupling                            : off

 **************************** Basis Set Parameters *****************************

 plane wave basis set cut-off                   :  1000.0000   eV
 size of standard grid                          :     2.0000
 size of   fine   gmax                          :    32.4018   1/A
 finite basis set correction                    : automatic
 number of sample energies                      :          3
           sample  spacing                      :     5.0000   eV

 **************************** Electronic Parameters ****************************

 number of  electrons                           :  80.00
 net charge of system                           :  0.000
 treating system as non-spin-polarized
 number of bands                                :         75

 ********************* Electronic Minimization Parameters **********************

 Method: Treating system as metallic with density mixing treatment of electrons,
         and number of  SD  steps               :          1
         and number of  CG  steps               :          4

 total energy / atom convergence tol.           : 0.1000E-10   eV
 eigen-energy convergence tolerance             : 0.2667E-11   eV
 max force / atom convergence tol.              : ignored
 convergence tolerance window                   :          3   cycles
 max. number of SCF cycles                      :        200
 number of fixed-spin iterations                :         10
 smearing scheme                                : Gaussian
 smearing width                                 : 0.5000E-01   eV
 Fermi energy convergence tolerance             : 0.2721E-13   eV
 periodic dipole correction                     : NONE

 ************************** Density Mixing Parameters **************************

 density-mixing scheme                          : Pulay
 max. length of mixing history                  :         20
 charge density mixing amplitude                : 0.8000
 cut-off energy for mixing                      :  1000.       eV

 *********************** Population Analysis Parameters ************************

 Population analysis with cutoff                :  3.000       A
 Population analysis output                     : summary and pdos components

 ********************** Geometry Optimization Parameters ***********************

 optimization method                            : LBFGS
 max. no. of LBFGS updates                      : unbounded
 variable cell method                           : fixed basis quality
 max. number of steps                           :         30
 estimated bulk modulus                         :  500.0       GPa
 estimated <frequency>                          :  1668.       cm-1
 geom line minimiser                            : on
 with line minimiser tolerance                  :     0.4000
 total energy convergence tolerance             : 0.2000E-04   eV/atom
        max ionic |force| tolerance             : 0.5000E-01   eV/A
 max ionic |displacement| tolerance             : 0.1000E-02   A
   max |stress component| tolerance             : 0.1000       GPa
 convergence tolerance window                   :          2   steps
 backup results every                           :          5   steps
 write geom trajectory file                     : on

                                      Unit Cell
        Real Lattice(A)                      Reciprocal Lattice(1/A)
    19.1230500    -0.7864580    -0.0047370        0.327993637  -0.013922938   0.000679655
     0.7854600    18.5034760    -0.0046120        0.013940789   0.338976058  -0.000004143
    -0.0050600     0.0002380     2.4467730        0.000661279   0.000611992   2.567949094

                       Lattice parameters(A)       Cell Angles
                    a =     19.139216          alpha =   90.013725
                    b =     18.520140          beta  =   90.132799
                    c =      2.446778          gamma =   89.924318

                       Current cell volume =           867.284252       A**3
                                   density =             0.276973   AMU/A**3
                                           =             0.459924     g/cm^3

                                     Cell Contents
                         Total number of ions in cell =   20
                      Total number of species in cell =    1
                        Max number of any one species =   20

            x  Element    Atom        Fractional coordinates of atoms  x
            x            Number           u          v          w      x
            x  C            1         0.637640   0.516852   0.501116   x
            x  C            2         0.590200   0.412531   0.000824   x
            x  C            3         0.491425   0.357645   0.500567   x
            x  C            4         0.379890   0.371681   0.000353   x
            x  C            5         0.297847   0.450562   0.500339   x
            x  C            6         0.276806   0.564321   0.000558   x
            x  C            7         0.324272   0.668656   0.500952   x
            x  C            8         0.422972   0.723645   0.001172   x
            x  C            9         0.534531   0.709457   0.501323   x
            x  C           10         0.616607   0.630656   0.001135   x
            x  C           11         0.629078   0.478827   0.000963   x
            x  C           12         0.561134   0.387077   0.500603   x
            x  C           13         0.453499   0.354465   0.000219   x
            x  C           14         0.347090   0.391699   0.500372   x
            x  C           15         0.283165   0.486860   0.000431   x
            x  C           16         0.285400   0.602315   0.500675   x
            x  C           17         0.353265   0.694202   0.001106   x
            x  C           18         0.460917   0.726674   0.501504   x
            x  C           19         0.567378   0.689507   0.001383   x
            x  C           20         0.631263   0.594329   0.501190   x

                         No user defined ionic velocities

                                   Details of Species

                               Mass of species in AMU
                                    C   12.0107000

                          Electric Quadrupole Moment (Barn)
                                    C    0.0332700 Isotope 11

                          Files used for pseudopotentials:
                                    C 2|1.4|10|12|13|20:21(qc=7)

                              k-Points For BZ Sampling
                       MP grid size for SCF calculation is  1  1500
[...]
     28  -3.14109602E+003 -2.02845096E+000  -4.71967621E-009   81787.64  <-- SCF
     29  -3.14109602E+003 -2.02845133E+000  -3.69025771E-008   81837.08  <-- SCF
     30  -3.14109602E+003 -2.02845133E+000  -2.88983735E-008   81884.34  <-- SCF
     31  -3.14109602E+003 -2.02845123E+000  -2.45786581E-009   81932.48  <-- SCF
     32  -3.14109602E+003 -2.02845132E+000  -3.30593111E-009   81979.52  <-- SCF
     33  -3.14109602E+003 -2.02845133E+000   8.15331402E-010   82026.24  <-- SCF
     34  -3.14109602E+003 -2.02845134E+000  -1.11246942E-009   82071.46  <-- SCF
     35  -3.14109602E+003 -2.02845130E+000   1.06915935E-009   82121.52  <-- SCF
     36  -3.14109602E+003 -2.02845126E+000  -2.01177209E-009   82166.14  <-- SCF
     37  -3.14109602E+003 -2.02845125E+000  -3.42149553E-010   82213.20  <-- SCF
     38  -3.14109602E+003 -2.02845126E+000  -6.46093437E-010   82258.70  <-- SCF
     39  -3.14109602E+003 -2.02845126E+000  -9.34414760E-010   82303.33  <-- SCF
     40  -3.14109602E+003 -2.02845126E+000   4.48568582E-010   82352.70  <-- SCF
     41  -3.14109602E+003 -2.02845127E+000  -8.04329871E-012   82402.08  <-- SCF
     42  -3.14109602E+003 -2.02845127E+000   3.55761289E-012   82443.61  <-- SCF
     43  -3.14109602E+003 -2.02845128E+000   4.17632818E-012   82485.69  <-- SCF
------------------------------------------------------------------------ <-- SCF

Final energy, E             =  -3141.095235400     eV
Final free energy (E-TS)    =  -3141.096020563     eV
(energies not corrected for finite basis set)

NB est. 0K energy (E-0.5TS)      =  -3141.095627981     eV

[...]

 ***************** Stress Tensor *****************
 *          Cartesian components (GPa)           *
 *             x             y             z     *
 *  x      0.259572     -0.002217     -0.054695  *
 *  y     -0.002217      0.223587      0.004458  *
 *  z     -0.054695      0.004458     -0.054265  *
 *  Pressure:   -0.1430                          *

 *********** Constrained Stress Tensor ***********
 *          Cartesian components (GPa)           *
 *             x             y             z     *
 *  x      0.000000      0.000000     -0.000202  *
 *  y      0.000000     -0.000000     -0.000030  *
 *  z     -0.000202     -0.000030     -0.054216  *
 *  Pressure:    0.0181                          *

 +------------+-------------+-------------+-----------------+ <-- min LBFGS
 |    Step    |   lambda    |   F.delta'  |    enthalpy     | <-- min LBFGS
 +------------+-------------+-------------+-----------------+ <-- min LBFGS
 |  previous  |    0.000000 |    0.082119 |    -3141.095740 | <-- min LBFGS
 | trial step |    1.000000 |    0.079043 |    -3141.096020 | <-- min LBFGS
 +------------+-------------+-------------+-----------------+ <-- min LBFGS

 LBFGS: finished iteration    29 with enthalpy= -3.14109602E+003 eV

 +-----------+-----------------+-----------------+------------+-----+ <-- LBFGS
 | Parameter |      value      |    tolerance    |    units   | OK? | <-- LBFGS
 +-----------+-----------------+-----------------+------------+-----+ <-- LBFGS
 |  dE/ion   |   1.402716E-005 |   2.000000E-005 |         eV | Yes | <-- LBFGS
 |  |F|max   |   4.868167E-002 |   5.000000E-002 |       eV/A | Yes | <-- LBFGS
 |  |dR|max  |   4.110906E-004 |   1.000000E-003 |          A | Yes | <-- LBFGS
 |   Smax    |   5.421562E-002 |   1.000000E-001 |        GPa | Yes | <-- LBFGS
 +-----------+-----------------+-----------------+------------+-----+ <-- LBFGS

 LBFGS: Geometry optimization completed successfully.

 LBFGS: Final Configuration:

                                      Unit Cell
        Real Lattice(A)              Reciprocal Lattice(1/A)
    19.1230500    -0.7864580    -0.0048572        0.327993641  -0.013922938   0.000677593
     0.7854600    18.5034760    -0.0046357        0.013940790   0.338976058  -0.000004574
    -0.0050913     0.0002427     2.4694731        0.000671305   0.000608946   2.544343828

                       Lattice parameters(A)       Cell Angles
                    a =     19.139216          alpha =   90.013725
                    b =     18.520140          beta  =   90.132799
                    c =      2.469478          gamma =   89.924318

                Current cell volume =           875.330520 A**3
                            density =             0.274427 amu/A**3
                                    =             0.455696 g/cm^3

                                     Cell Contents

            x  Element         Atom        Fractional coordinates of atoms  x
            x                 Number           u          v          w      x
            x  C                 1         0.637045   0.517073   0.502127   x
            x  C                 2         0.589256   0.413000   0.001587   x
            x  C                 3         0.491157   0.358245   0.500756   x
            x  C                 4         0.380392   0.372455  -0.000040   x
            x  C                 5         0.298581   0.450921   0.499490   x
            x  C                 6         0.277416   0.564120  -0.000458   x
            x  C                 7         0.325178   0.668208   0.500103   x
            x  C                 8         0.423272   0.722968   0.000939   x
            x  C                 9         0.534034   0.708724   0.501719   x
            x  C                10         0.615857   0.630266   0.002170   x
            x  C                11         0.628383   0.479074   0.001958   x
            x  C                12         0.560479   0.387730   0.501227   x
            x  C                13         0.453500   0.355058   0.000347   x
            x  C                14         0.347929   0.392485   0.499653   x
            x  C                15         0.283810   0.486886  -0.000594   x
            x  C                16         0.286074   0.602120   0.499715   x
            x  C                17         0.353948   0.693486   0.000466   x
            x  C                18         0.460931   0.726143   0.501346   x
            x  C                19         0.566497   0.688691   0.002022   x
            x  C                20         0.630638   0.594306   0.502255   x

 LBFGS: Final Enthalpy     = -3.14109602E+003 eV
 LBFGS: Final <frequency>  unchanged from initial value
 LBFGS: Final bulk modulus unchanged from initial value

 ************************************** Forces **************************************
 *                           Cartesian components (eV/A)                            *
 *                         x                    y                    z              *
 * C               1     -0.03517              0.00581              0.00862         *
 * C               2     -0.03562              0.03203              0.00624         *
 * C               3     -0.00676              0.02528              0.00165         *
 * C               4      0.02106              0.03553             -0.00367         *
 * C               5      0.03612              0.01898             -0.00749         *
 * C               6      0.03453             -0.00548             -0.00848         *
 * C               7      0.03585             -0.03231             -0.00641         *
 * C               8      0.00718             -0.02598             -0.00189         *
 * C               9     -0.02076             -0.03508              0.00365         *
 * C              10     -0.03640             -0.01878              0.00778         *
 * C              11     -0.03719              0.01649              0.00834         *
 * C              12     -0.02523              0.03492              0.00533         *
 * C              13      0.00349              0.02521              0.00042         *
 * C              14      0.03207              0.03376             -0.00474         *
 * C              15      0.03493              0.00803             -0.00800         *
 * C              16      0.03652             -0.01614             -0.00826         *
 * C              17      0.02582             -0.03575             -0.00555         *
 * C              18     -0.00319             -0.02530             -0.00063         *
 * C              19     -0.03201             -0.03348              0.00478         *
 * C              20     -0.03524             -0.00775              0.00831         *

 Pseudo atomic calculation performed for C 2s2 2p2

 Converged in 36 iterations to a total energy of -148.5530 eV
Charge spilling parameter for spin component 1 = 1.11%

            Orbital Populations
     Ion    Atom   Orbital             Charge
      C     1      S                    1.059
      C     1      Px                   0.998
      C     1      Py                   0.972
      C     1      Pz                   0.971
      C     2      S                    1.059
      C     2      Px                   0.982
      C     2      Py                   0.988
      C     2      Pz                   0.971
      C     3      S                    1.058
      C     3      Px                   0.970
      C     3      Py                   1.001
      C     3      Pz                   0.971
      C     4      S                    1.059
      C     4      Px                   0.979
      C     4      Py                   0.992
      C     4      Pz                   0.971
      C     5      S                    1.059
      C     5      Px                   0.996
      C     5      Py                   0.974
      C     5      Pz                   0.971
      C     6      S                    1.058
      C     6      Px                   0.998
      C     6      Py                   0.972
      C     6      Pz                   0.971
      C     7      S                    1.059
      C     7      Px                   0.982
      C     7      Py                   0.988
      C     7      Pz                   0.971
      C     8      S                    1.058
      C     8      Px                   0.970
      C     8      Py                   1.001
      C     8      Pz                   0.971
      C     9      S                    1.058
      C     9      Px                   0.979
      C     9      Py                   0.992
      C     9      Pz                   0.971
      C    10      S                    1.059
      C    10      Px                   0.996
      C    10      Py                   0.974
      C    10      Pz                   0.971
      C    11      S                    1.059
      C    11      Px                   0.998
      C    11      Py                   0.973
      C    11      Pz                   0.971
      C    12      S                    1.059
      C    12      Px                   0.981
      C    12      Py                   0.990
      C    12      Pz                   0.971
      C    13      S                    1.058
      C    13      Px                   0.970
      C    13      Py                   1.001
      C    13      Pz                   0.971
      C    14      S                    1.059
      C    14      Px                   0.980
      C    14      Py                   0.991
      C    14      Pz                   0.971
      C    15      S                    1.059
      C    15      Px                   0.997
      C    15      Py                   0.974
      C    15      Pz                   0.971
[...]
      C    17      Px                   0.981
      C    17      Py                   0.990
      C    17      Pz                   0.971
      C    18      S                    1.058
      C    18      Px                   0.970
      C    18      Py                   1.001
      C    18      Pz                   0.971
      C    19      S                    1.059
      C    19      Px                   0.980
      C    19      Py                   0.991
      C    19      Pz                   0.971
      C    20      S                    1.059
      C    20      Px                   0.997
      C    20      Py                   0.974
      C    20      Pz                   0.971
                           Total:      79.998

     Atomic Populations (Mulliken)
Species          Ion     s       p       d       f      Total   Charge (e)
  C               1     1.059   2.941   0.000   0.000   4.000     0.000
  C               2     1.059   2.941   0.000   0.000   4.000    -0.000
  C               3     1.058   2.942   0.000   0.000   4.000     0.000
  C               4     1.059   2.941   0.000   0.000   4.000     0.000
  C               5     1.059   2.941   0.000   0.000   4.000     0.000
  C               6     1.058   2.941   0.000   0.000   4.000     0.000
  C               7     1.059   2.941   0.000   0.000   4.000    -0.000
  C               8     1.058   2.942   0.000   0.000   4.000     0.000
  C               9     1.058   2.941   0.000   0.000   4.000     0.000
  C              10     1.059   2.941   0.000   0.000   4.000     0.000
  C              11     1.059   2.941   0.000   0.000   4.000     0.000
  C              12     1.059   2.941   0.000   0.000   4.000     0.000
  C              13     1.058   2.942   0.000   0.000   4.000     0.000
  C              14     1.059   2.941   0.000   0.000   4.000    -0.000
  C              15     1.059   2.941   0.000   0.000   4.000     0.000
  C              16     1.059   2.941   0.000   0.000   4.000     0.000
  C              17     1.059   2.941   0.000   0.000   4.000     0.000
  C              18     1.058   2.942   0.000   0.000   4.000     0.000
  C              19     1.059   2.941   0.000   0.000   4.000    -0.000
  C              20     1.059   2.941   0.000   0.000   4.000     0.000

                 Bond                   Population      Length (A)
              C 3  -- C 13                   2.17        1.43037
              C 8  -- C 18                   2.17        1.43037
              C 9  -- C 19                   2.17        1.43044
              C 4  -- C 14                   2.17        1.43044
              C 2  -- C 12                   2.17        1.43052
              C 7  -- C 17                   2.17        1.43053
              C 5  -- C 15                   2.17        1.43071
              C 10 -- C 20                   2.17        1.43071
              C 1  -- C 11                   2.17        1.43084
              C 6  -- C 16                   2.17        1.43085
              C 3  -- C 12                   0.87        1.43542
              C 4  -- C 13                   0.87        1.43543
              C 8  -- C 17                   0.87        1.43543
              C 9  -- C 18                   0.87        1.43544
              C 1  -- C 20                   0.87        1.43545
              C 6  -- C 15                   0.87        1.43545
              C 5  -- C 14                   0.87        1.43548
              C 2  -- C 11                   0.87        1.43548
              C 7  -- C 16                   0.87        1.43548
              C 10 -- C 19                   0.87        1.43549
              C 7  -- C 8                   -0.36        2.46510
              C 2  -- C 3                   -0.36        2.46512
              C 4  -- C 5                   -0.36        2.46514
              C 14 -- C 15                  -0.36        2.46515
              C 19 -- C 20                  -0.36        2.46516
              C 9  -- C 10                  -0.36        2.46516
              C 13 -- C 14                  -0.36        2.46517
              C 18 -- C 19                  -0.36        2.46519
              C 11 -- C 12                  -0.36        2.46521
              C 16 -- C 17                  -0.36        2.46522
              C 1  -- C 2                   -0.36        2.46531
              C 6  -- C 7                   -0.36        2.46537
              C 8  -- C 9                   -0.36        2.46565
              C 3  -- C 4                   -0.36        2.46565
              C 17 -- C 18                  -0.36        2.46565
              C 12 -- C 13                  -0.36        2.46566
              C 1  -- C 10                  -0.36        2.46579
              C 5  -- C 6                   -0.36        2.46579
              C 11 -- C 20                  -0.36        2.46594
              C 15 -- C 16                  -0.36        2.46596

Writing analysis data to C_nanotube.castep_bin

Writing model to C_nanotube.check

 A BibTeX formatted list of references used in this run has been written to
 C_nanotube.bib

Initialisation time =      7.07 s
Calculation time    =  82872.48 s
Finalisation time   =     27.20 s
Total time          =  82906.75 s

Overall parallel efficiency rating: Excellent (96%)

Data was distributed by:-
k-point (250-way); efficiency rating: Excellent (96%)